100
100
119 2
526 19
869 13
534 20
41 14
338 23
93 23
530 25
307 19
796 20
62 2
137 22
360 23
346 24
749 24
567 18
650 19
288 20
307 23
491 22
638 5
94 5
727 25
307 10
444 4
156 7
5 18
878 14
67 1
938 16
774 6
35 25
300 24
996 6
846 11
304 8
665 24
565 18
723 23
128 18
676 10
375 6
927 4
396 21
179 8
161 4
189 22
430 15
220 25
445 17
910 25
251 24
848 17
317 22
389 21
440 15
782 16
97 9
769 17
54 25
177 16
955 17
112 10
556 8
809 2
451 21
451 3
644 25
220 12
571 10
459 12
376 16
527 22
301 23
316 6
299 17
271 3
208 9
637 15
768 23
466 20
868 16
622 13
565 18
175 12
153 10
849 5
225 2
352 2
374 19
582 22
862 2
277 21
937 13
535 6
62 25
625 4
267 22
792 8
791 18
